/*********************************************
    * Lab01 - FCD_FCR
    * Author: Coso
    * Creation Date: Mar, 2019
    *********************************************/
instance_name = "small_instance_16_FCD_FCR";

d = 2;
r = 3;

SCj = [160 188];
Fj = [1237, 3561];
Dk = [86 81 33];

Cjk = [[66 38 87]
 [79 41 56]];
Fjk = [[420 441 683]
 [837 609 507]];
